experiment/data/lkh-res/Vrp-Set-Golden-n256/Vrp-Set-Golden-n256-lkh/0.lkh1.vrp
NAME : 0
COMMENT : CVRP Instance
TYPE : CVRP
DIMENSION : 256
EDGE_WEIGHT_TYPE : EUC_2D
CAPACITY : 1000
NODE_COORD_SECTION
1	0	-1499
2	-99	-1399
3	100	-1399
4	-199	-1299
5	0	-1299
6	200	-1299
7	-299	-1199
8	-99	-1199
9	100	-1199
10	300	-1199
11	-399	-1099
12	-199	-1099
13	0	-1099
14	200	-1099
15	400	-1099
16	-499	-999
17	-299	-999
18	-99	-999
19	100	-999
20	300	-999
21	500	-999
22	-599	-899
23	-399	-899
24	-199	-899
25	0	-899
26	200	-899
27	400	-899
28	600	-899
29	-699	-799
30	-499	-799
31	-299	-799
32	-99	-799
33	100	-799
34	300	-799
35	500	-799
36	700	-799
37	-799	-699
38	-599	-699
39	-399	-699
40	-199	-699
41	0	-699
42	200	-699
43	400	-699
44	600	-699
45	800	-699
46	-899	-599
47	-699	-599
48	-499	-599
49	-299	-599
50	-99	-599
51	100	-599
52	300	-599
53	500	-599
54	700	-599
55	900	-599
56	-999	-499
57	-799	-499
58	-599	-499
59	-399	-499
60	-199	-499
61	0	-499
62	200	-499
63	400	-499
64	600	-499
65	800	-499
66	1000	-499
67	-1099	-399
68	-899	-399
69	-699	-399
70	-499	-399
71	-299	-399
72	-99	-399
73	100	-399
74	300	-399
75	500	-399
76	700	-399
77	900	-399
78	1100	-399
79	-1199	-299
80	-999	-299
81	-799	-299
82	-599	-299
83	-399	-299
84	-199	-299
85	0	-299
86	200	-299
87	400	-299
88	600	-299
89	800	-299
90	1000	-299
91	1200	-299
92	-1299	-199
93	-1099	-199
94	-899	-199
95	-699	-199
96	-499	-199
97	-299	-199
98	-99	-199
99	100	-199
100	300	-199
101	500	-199
102	700	-199
103	900	-199
104	1100	-199
105	1300	-199
106	-1399	-99
107	-1199	-99
108	-999	-99
109	-799	-99
110	-599	-99
111	-399	-99
112	-199	-99
113	0	-99
114	200	-99
115	400	-99
116	600	-99
117	800	-99
118	1000	-99
119	1200	-99
120	1400	-99
121	-1499	0
122	-1299	0
123	-1099	0
124	-899	0
125	-699	0
126	-499	0
127	-299	0
128	-99	0
129	100	0
130	300	0
131	500	0
132	700	0
133	900	0
134	1100	0
135	1300	0
136	1500	0
137	-1399	100
138	-1199	100
139	-999	100
140	-799	100
141	-599	100
142	-399	100
143	-199	100
144	0	100
145	200	100
146	400	100
147	600	100
148	800	100
149	1000	100
150	1200	100
151	1400	100
152	-1299	200
153	-1099	200
154	-899	200
155	-699	200
156	-499	200
157	-299	200
158	-99	200
159	100	200
160	300	200
161	500	200
162	700	200
163	900	200
164	1100	200
165	1300	200
166	-1199	300
167	-999	300
168	-799	300
169	-599	300
170	-399	300
171	-199	300
172	0	300
173	200	300
174	400	300
175	600	300
176	800	300
177	1000	300
178	1200	300
179	-1099	400
180	-899	400
181	-699	400
182	-499	400
183	-299	400
184	-99	400
185	100	400
186	300	400
187	500	400
188	700	400
189	900	400
190	1100	400
191	-999	500
192	-799	500
193	-599	500
194	-399	500
195	-199	500
196	0	500
197	200	500
198	400	500
199	600	500
200	800	500
201	1000	500
202	-899	600
203	-699	600
204	-499	600
205	-299	600
206	-99	600
207	100	600
208	300	600
209	500	600
210	700	600
211	900	600
212	-799	700
213	-599	700
214	-399	700
215	-199	700
216	0	700
217	200	700
218	400	700
219	600	700
220	800	700
221	-699	800
222	-499	800
223	-299	800
224	-99	800
225	100	800
226	300	800
227	500	800
228	700	800
229	-599	900
230	-399	900
231	-199	900
232	0	900
233	200	900
234	400	900
235	600	900
236	-499	1000
237	-299	1000
238	-99	1000
239	100	1000
240	300	1000
241	500	1000
242	-399	1100
243	-199	1100
244	0	1100
245	200	1100
246	400	1100
247	-299	1200
248	-99	1200
249	100	1200
250	300	1200
251	-199	1300
252	0	1300
253	200	1300
254	-99	1400
255	100	1400
256	0	1500
DEMAND_SECTION
1	0
2	300
3	300
4	180
5	300
6	180
7	128
8	180
9	180
10	128
11	100
12	128
13	180
14	128
15	100
16	81
17	100
18	128
19	128
20	100
21	81
22	69
23	81
24	100
25	128
26	100
27	81
28	69
29	60
30	69
31	81
32	100
33	100
34	81
35	69
36	60
37	52
38	60
39	69
40	81
41	100
42	81
43	69
44	60
45	52
46	47
47	52
48	60
49	69
50	81
51	81
52	69
53	60
54	52
55	47
56	42
57	47
58	52
59	60
60	69
61	81
62	69
63	60
64	52
65	47
66	42
67	39
68	42
69	47
70	52
71	60
72	69
73	69
74	60
75	52
76	47
77	42
78	39
79	36
80	39
81	42
82	47
83	52
84	60
85	69
86	60
87	52
88	47
89	42
90	39
91	36
92	33
93	36
94	39
95	42
96	47
97	52
98	60
99	60
100	52
101	47
102	42
103	39
104	36
105	33
106	31
107	33
108	36
109	39
110	42
111	47
112	52
113	60
114	52
115	47
116	42
117	39
118	36
119	33
120	31
121	29
122	31
123	33
124	36
125	39
126	42
127	47
128	52
129	52
130	47
131	42
132	39
133	36
134	33
135	31
136	29
137	29
138	31
139	33
140	36
141	39
142	42
143	47
144	52
145	47
146	42
147	39
148	36
149	33
150	31
151	29
152	29
153	31
154	33
155	36
156	39
157	42
158	47
159	47
160	42
161	39
162	36
163	33
164	31
165	29
166	29
167	31
168	33
169	36
170	39
171	42
172	47
173	42
174	39
175	36
176	33
177	31
178	29
179	29
180	31
181	33
182	36
183	39
184	42
185	42
186	39
187	36
188	33
189	31
190	29
191	29
192	31
193	33
194	36
195	39
196	42
197	39
198	36
199	33
200	31
201	29
202	29
203	31
204	33
205	36
206	39
207	39
208	36
209	33
210	31
211	29
212	29
213	31
214	33
215	36
216	39
217	36
218	33
219	31
220	29
221	29
222	31
223	33
224	36
225	36
226	33
227	31
228	29
229	29
230	31
231	33
232	36
233	33
234	31
235	29
236	29
237	31
238	33
239	33
240	31
241	29
242	29
243	31
244	33
245	31
246	29
247	29
248	31
249	31
250	29
251	29
252	31
253	29
254	29
255	29
256	29
DEPOT_SECTION
1
-1
EOF
