experiment/data/lkh-res/Vrp-Set-Golden-n256/Vrp-Set-Golden-n256-lkh/0.lkh1.log
PARAMETER_FILE = baseline_results/cvrp_lkh/Vrp-Set-Golden-n256/Vrp-Set-Golden-n256-lkh/0.lkh1.par
Reading PROBLEM_FILE: "baseline_results/cvrp_lkh/Vrp-Set-Golden-n256/Vrp-Set-Golden-n256-lkh/0.lkh1.vrp" ... done
ASCENT_CANDIDATES = 50
BACKBONE_TRIALS = 0
BACKTRACKING = NO
# BWTSP =
# CANDIDATE_FILE =
CANDIDATE_SET_TYPE = ALPHA
# DISTANCE =
DEPOT = 1
# EDGE_FILE =
EXCESS = 0.00390625
EXTERNAL_SALESMEN = 0
EXTRA_CANDIDATES = 0 
EXTRA_CANDIDATE_SET_TYPE = QUADRANT
GAIN23 = NO
GAIN_CRITERION = YES
INITIAL_PERIOD = 128
INITIAL_STEP_SIZE = 1
INITIAL_TOUR_ALGORITHM = WALK
# INITIAL_TOUR_FILE = 
INITIAL_TOUR_FRACTION = 1.000
# INPUT_TOUR_FILE = 
KICK_TYPE = 4
KICKS = 1
# MAX_BREADTH =
MAKESPAN = NO
MAX_CANDIDATES = 5 
MAX_SWAPS = 0
MAX_TRIALS = 10000
# MERGE_TOUR_FILE =
MOVE_TYPE = 5 SPECIAL
MTSP_MIN_SIZE = 1
MTSP_MAX_SIZE = 255
# MTSP_SOLUTION_FILE = 
# NONSEQUENTIAL_MOVE_TYPE = 5
# OPTIMUM =
OUTPUT_TOUR_FILE = baseline_results/cvrp_lkh/Vrp-Set-Golden-n256/Vrp-Set-Golden-n256-lkh/0.lkh1.tour
PATCHING_A = 1 
PATCHING_C = 0 
# PI_FILE = 
POPMUSIC_INITIAL_TOUR = NO
POPMUSIC_MAX_NEIGHBORS = 5
POPMUSIC_SAMPLE_SIZE = 10
POPMUSIC_SOLUTIONS = 50
POPMUSIC_TRIALS = 1
POPULATION_SIZE = 10
PRECISION = 100
PROBLEM_FILE = baseline_results/cvrp_lkh/Vrp-Set-Golden-n256/Vrp-Set-Golden-n256-lkh/0.lkh1.vrp
RECOMBINATION = IPT
RESTRICTED_SEARCH = YES
RUNS = 1
SALESMEN = 14
SCALE = 1
SEED = 1234
# SINTEF_SOLUTION_FILE = 
STOP_AT_OPTIMUM = YES
SUBGRADIENT = YES
# SUBPROBLEM_SIZE =
# SUBPROBLEM_TOUR_FILE = 
SUBSEQUENT_MOVE_TYPE = 5 SPECIAL
SUBSEQUENT_PATCHING = YES
# TIME_LIMIT =
# TOTAL_TIME_LIMIT =
# TOUR_FILE = 
TRACE_LEVEL = 1
VEHICLES = 14

Lower bound = 43712.7, Ascent time = 0.09 sec.
Cand.min = 2, Cand.avg = 5.0, Cand.max = 5
Preprocessing time = 0.10 sec.
* 1: Cost = 0_64369, Time = 0.05 sec. 
Writing OUTPUT_TOUR_FILE: "baseline_results/cvrp_lkh/Vrp-Set-Golden-n256/Vrp-Set-Golden-n256-lkh/0.lkh1.tour" ... done
* 3: Cost = 0_63992, Time = 0.12 sec. 
Writing OUTPUT_TOUR_FILE: "baseline_results/cvrp_lkh/Vrp-Set-Golden-n256/Vrp-Set-Golden-n256-lkh/0.lkh1.tour" ... done
* 4: Cost = 0_63879, Time = 0.12 sec. 
Writing OUTPUT_TOUR_FILE: "baseline_results/cvrp_lkh/Vrp-Set-Golden-n256/Vrp-Set-Golden-n256-lkh/0.lkh1.tour" ... done
* 7: Cost = 0_63632, Time = 0.16 sec. 
Writing OUTPUT_TOUR_FILE: "baseline_results/cvrp_lkh/Vrp-Set-Golden-n256/Vrp-Set-Golden-n256-lkh/0.lkh1.tour" ... done
* 8: Cost = 0_62492, Time = 0.17 sec. 
Writing OUTPUT_TOUR_FILE: "baseline_results/cvrp_lkh/Vrp-Set-Golden-n256/Vrp-Set-Golden-n256-lkh/0.lkh1.tour" ... done
* 12: Cost = 0_62287, Time = 0.19 sec. 
Writing OUTPUT_TOUR_FILE: "baseline_results/cvrp_lkh/Vrp-Set-Golden-n256/Vrp-Set-Golden-n256-lkh/0.lkh1.tour" ... done
* 16: Cost = 0_62007, Time = 0.21 sec. 
Writing OUTPUT_TOUR_FILE: "baseline_results/cvrp_lkh/Vrp-Set-Golden-n256/Vrp-Set-Golden-n256-lkh/0.lkh1.tour" ... done
* 18: Cost = 0_61946, Time = 0.22 sec. 
Writing OUTPUT_TOUR_FILE: "baseline_results/cvrp_lkh/Vrp-Set-Golden-n256/Vrp-Set-Golden-n256-lkh/0.lkh1.tour" ... done
* 19: Cost = 0_61764, Time = 0.23 sec. 
Writing OUTPUT_TOUR_FILE: "baseline_results/cvrp_lkh/Vrp-Set-Golden-n256/Vrp-Set-Golden-n256-lkh/0.lkh1.tour" ... done
* 23: Cost = 0_61572, Time = 0.26 sec. 
Writing OUTPUT_TOUR_FILE: "baseline_results/cvrp_lkh/Vrp-Set-Golden-n256/Vrp-Set-Golden-n256-lkh/0.lkh1.tour" ... done
* 30: Cost = 0_61506, Time = 0.28 sec. 
Writing OUTPUT_TOUR_FILE: "baseline_results/cvrp_lkh/Vrp-Set-Golden-n256/Vrp-Set-Golden-n256-lkh/0.lkh1.tour" ... done
* 32: Cost = 0_61414, Time = 0.29 sec. 
Writing OUTPUT_TOUR_FILE: "baseline_results/cvrp_lkh/Vrp-Set-Golden-n256/Vrp-Set-Golden-n256-lkh/0.lkh1.tour" ... done
* 39: Cost = 0_61197, Time = 0.32 sec. 
Writing OUTPUT_TOUR_FILE: "baseline_results/cvrp_lkh/Vrp-Set-Golden-n256/Vrp-Set-Golden-n256-lkh/0.lkh1.tour" ... done
* 40: Cost = 0_61147, Time = 0.33 sec. 
Writing OUTPUT_TOUR_FILE: "baseline_results/cvrp_lkh/Vrp-Set-Golden-n256/Vrp-Set-Golden-n256-lkh/0.lkh1.tour" ... done
* 41: Cost = 0_61146, Time = 0.33 sec. 
Writing OUTPUT_TOUR_FILE: "baseline_results/cvrp_lkh/Vrp-Set-Golden-n256/Vrp-Set-Golden-n256-lkh/0.lkh1.tour" ... done
* 48: Cost = 0_60948, Time = 0.34 sec. 
Writing OUTPUT_TOUR_FILE: "baseline_results/cvrp_lkh/Vrp-Set-Golden-n256/Vrp-Set-Golden-n256-lkh/0.lkh1.tour" ... done
* 50: Cost = 0_60940, Time = 0.34 sec. 
Writing OUTPUT_TOUR_FILE: "baseline_results/cvrp_lkh/Vrp-Set-Golden-n256/Vrp-Set-Golden-n256-lkh/0.lkh1.tour" ... done
* 70: Cost = 0_60897, Time = 0.43 sec. 
Writing OUTPUT_TOUR_FILE: "baseline_results/cvrp_lkh/Vrp-Set-Golden-n256/Vrp-Set-Golden-n256-lkh/0.lkh1.tour" ... done
* 71: Cost = 0_60789, Time = 0.44 sec. 
Writing OUTPUT_TOUR_FILE: "baseline_results/cvrp_lkh/Vrp-Set-Golden-n256/Vrp-Set-Golden-n256-lkh/0.lkh1.tour" ... done
* 86: Cost = 0_60707, Time = 0.55 sec. 
Writing OUTPUT_TOUR_FILE: "baseline_results/cvrp_lkh/Vrp-Set-Golden-n256/Vrp-Set-Golden-n256-lkh/0.lkh1.tour" ... done
* 132: Cost = 0_60639, Time = 0.85 sec. 
Writing OUTPUT_TOUR_FILE: "baseline_results/cvrp_lkh/Vrp-Set-Golden-n256/Vrp-Set-Golden-n256-lkh/0.lkh1.tour" ... done
* 135: Cost = 0_60633, Time = 0.86 sec. 
Writing OUTPUT_TOUR_FILE: "baseline_results/cvrp_lkh/Vrp-Set-Golden-n256/Vrp-Set-Golden-n256-lkh/0.lkh1.tour" ... done
* 170: Cost = 0_60594, Time = 1.04 sec. 
Writing OUTPUT_TOUR_FILE: "baseline_results/cvrp_lkh/Vrp-Set-Golden-n256/Vrp-Set-Golden-n256-lkh/0.lkh1.tour" ... done
* 171: Cost = 0_60577, Time = 1.05 sec. 
Writing OUTPUT_TOUR_FILE: "baseline_results/cvrp_lkh/Vrp-Set-Golden-n256/Vrp-Set-Golden-n256-lkh/0.lkh1.tour" ... done
* 190: Cost = 0_60164, Time = 1.15 sec. 
Writing OUTPUT_TOUR_FILE: "baseline_results/cvrp_lkh/Vrp-Set-Golden-n256/Vrp-Set-Golden-n256-lkh/0.lkh1.tour" ... done
* 207: Cost = 0_60047, Time = 1.28 sec. 
Writing OUTPUT_TOUR_FILE: "baseline_results/cvrp_lkh/Vrp-Set-Golden-n256/Vrp-Set-Golden-n256-lkh/0.lkh1.tour" ... done
* 255: Cost = 0_59960, Time = 1.61 sec. 
Writing OUTPUT_TOUR_FILE: "baseline_results/cvrp_lkh/Vrp-Set-Golden-n256/Vrp-Set-Golden-n256-lkh/0.lkh1.tour" ... done
* 256: Cost = 0_59943, Time = 1.61 sec. 
Writing OUTPUT_TOUR_FILE: "baseline_results/cvrp_lkh/Vrp-Set-Golden-n256/Vrp-Set-Golden-n256-lkh/0.lkh1.tour" ... done
* 329: Cost = 0_59661, Time = 2.07 sec. 
Writing OUTPUT_TOUR_FILE: "baseline_results/cvrp_lkh/Vrp-Set-Golden-n256/Vrp-Set-Golden-n256-lkh/0.lkh1.tour" ... done
* 358: Cost = 0_59624, Time = 2.22 sec. 
Writing OUTPUT_TOUR_FILE: "baseline_results/cvrp_lkh/Vrp-Set-Golden-n256/Vrp-Set-Golden-n256-lkh/0.lkh1.tour" ... done
* 374: Cost = 0_59606, Time = 2.32 sec. 
Writing OUTPUT_TOUR_FILE: "baseline_results/cvrp_lkh/Vrp-Set-Golden-n256/Vrp-Set-Golden-n256-lkh/0.lkh1.tour" ... done
* 444: Cost = 0_59571, Time = 2.90 sec. 
Writing OUTPUT_TOUR_FILE: "baseline_results/cvrp_lkh/Vrp-Set-Golden-n256/Vrp-Set-Golden-n256-lkh/0.lkh1.tour" ... done
* 583: Cost = 0_59512, Time = 3.72 sec. 
Writing OUTPUT_TOUR_FILE: "baseline_results/cvrp_lkh/Vrp-Set-Golden-n256/Vrp-Set-Golden-n256-lkh/0.lkh1.tour" ... done
* 1323: Cost = 0_59489, Time = 8.36 sec. 
Writing OUTPUT_TOUR_FILE: "baseline_results/cvrp_lkh/Vrp-Set-Golden-n256/Vrp-Set-Golden-n256-lkh/0.lkh1.tour" ... done
* 1344: Cost = 0_59470, Time = 8.62 sec. 
Writing OUTPUT_TOUR_FILE: "baseline_results/cvrp_lkh/Vrp-Set-Golden-n256/Vrp-Set-Golden-n256-lkh/0.lkh1.tour" ... done
* 1413: Cost = 0_59388, Time = 9.14 sec. 
Writing OUTPUT_TOUR_FILE: "baseline_results/cvrp_lkh/Vrp-Set-Golden-n256/Vrp-Set-Golden-n256-lkh/0.lkh1.tour" ... done
* 1420: Cost = 0_59355, Time = 9.17 sec. 
Writing OUTPUT_TOUR_FILE: "baseline_results/cvrp_lkh/Vrp-Set-Golden-n256/Vrp-Set-Golden-n256-lkh/0.lkh1.tour" ... done
* 3045: Cost = 0_59342, Time = 20.72 sec. 
Writing OUTPUT_TOUR_FILE: "baseline_results/cvrp_lkh/Vrp-Set-Golden-n256/Vrp-Set-Golden-n256-lkh/0.lkh1.tour" ... done
* 3167: Cost = 0_59341, Time = 21.63 sec. 
Writing OUTPUT_TOUR_FILE: "baseline_results/cvrp_lkh/Vrp-Set-Golden-n256/Vrp-Set-Golden-n256-lkh/0.lkh1.tour" ... done
* 3257: Cost = 0_59340, Time = 22.32 sec. 
Writing OUTPUT_TOUR_FILE: "baseline_results/cvrp_lkh/Vrp-Set-Golden-n256/Vrp-Set-Golden-n256-lkh/0.lkh1.tour" ... done
* 3870: Cost = 0_59314, Time = 26.64 sec. 
Writing OUTPUT_TOUR_FILE: "baseline_results/cvrp_lkh/Vrp-Set-Golden-n256/Vrp-Set-Golden-n256-lkh/0.lkh1.tour" ... done
* 4010: Cost = 0_59198, Time = 27.66 sec. 
Writing OUTPUT_TOUR_FILE: "baseline_results/cvrp_lkh/Vrp-Set-Golden-n256/Vrp-Set-Golden-n256-lkh/0.lkh1.tour" ... done
* 4687: Cost = 0_59175, Time = 32.53 sec. 
Writing OUTPUT_TOUR_FILE: "baseline_results/cvrp_lkh/Vrp-Set-Golden-n256/Vrp-Set-Golden-n256-lkh/0.lkh1.tour" ... done
Population:
  1: 0_59175
Run 1: Cost = 0_59175, Time = 71.51 sec. 

Successes/Runs = 0/1 
Cost.min = 59175, Cost.avg = 59175.00, Cost.max = 59175
Gap.min = 0.0000%, Gap.avg = 0.0000%, Gap.max = 0.0000%
Penalty.min = 0, Penalty.avg = 0.00, Penalty.max = 0
Trials.min = 10000, Trials.avg = 10000.0, Trials.max = 10000
Time.min = 71.51 sec., Time.avg = 71.51 sec., Time.max = 71.51 sec.
Time.total = 71.61 sec.
  Size.min = 3, Size.max = 29, Penalty = 0
  Cost.min = 739, Cost.max = 7257, Cost.sum = 59175
Best CVRP solution:
  Cost = 0_59175

