experiment/data/lkh-res/Vrp-Set-Golden-n256/Vrp-Set-Golden-n256-lkh/0.lkh1.tour
NAME : 0.59175.tour
COMMENT : Length = 59175
COMMENT : Found by LKH-3 [Keld Helsgaun] Tue Apr  9 01:58:23 2024
TYPE : TOUR
DIMENSION : 269
TOUR_SECTION
1
22
29
37
46
56
67
79
92
106
121
137
152
166
153
139
123
138
122
107
93
80
68
57
47
38
269
2
4
8
5
258
42
62
86
100
114
130
145
159
173
185
172
144
129
99
73
51
41
267
83
96
110
126
156
170
182
194
204
214
222
213
221
229
236
230
223
215
205
195
183
171
157
142
111
71
261
34
75
88
102
89
103
117
133
118
134
149
164
150
135
119
104
90
77
65
76
64
53
43
259
87
131
147
161
174
198
208
218
209
219
227
234
240
245
249
252
248
244
239
232
225
233
226
217
207
197
186
160
262
32
50
61
72
85
98
113
128
143
127
112
97
84
60
40
268
70
82
95
109
125
141
155
169
181
193
203
212
202
191
179
167
180
192
168
154
140
124
108
94
81
69
58
263
13
19
26
33
25
18
12
265
17
24
31
49
59
48
39
30
23
16
11
7
264
10
15
21
28
36
45
54
44
35
27
20
14
266
52
63
101
116
132
148
162
175
188
176
163
177
189
200
211
201
190
178
165
151
136
120
105
91
78
66
55
257
3
6
9
260
74
115
146
187
199
210
220
228
235
241
246
250
253
255
256
254
251
247
242
237
243
238
231
224
216
206
196
184
158
-1
EOF
